1771, 0, 0, 60, 0
1772, 0, 1, 32, 3
1773, 0, 2, 67, 1
1774, 0, 3, 38, 2
1775, 1, 0, 79, 1
1776, 1, 1, 45, 0
1777, 1, 2, 33, 2
1778, 1, 3, 81, 3
1779, 2, 0, 71, 3
1780, 2, 1, 34, 2
1781, 2, 2, 85, 0
1782, 2, 3, 59, 1
1783, 3, 0, 55, 2
1784, 3, 1, 51, 0
1785, 3, 2, 62, 1
1786, 3, 3, 39, 3
